(set-option :produce-models true)
(set-logic QF_UF)
(declare-fun p10() Bool)
(declare-fun p77() Bool)
(declare-fun p58() Bool)
(declare-fun p49() Bool)
(declare-fun p23() Bool)
(declare-fun p57() Bool)
(declare-fun p80() Bool)
(declare-fun p38() Bool)
(declare-fun p83() Bool)
(declare-fun p45() Bool)
(declare-fun p39() Bool)
(declare-fun p11() Bool)
(declare-fun p85() Bool)
(declare-fun p87() Bool)
(declare-fun p37() Bool)
(declare-fun p24() Bool)
(declare-fun p34() Bool)
(declare-fun p68() Bool)
(declare-fun p30() Bool)
(declare-fun p59() Bool)
(declare-fun p63() Bool)
(declare-fun p71() Bool)
(declare-fun p89() Bool)
(declare-fun p41() Bool)
(declare-fun p72() Bool)
(declare-fun p73() Bool)
(declare-fun p54() Bool)
(declare-fun p40() Bool)
(declare-fun p0() Bool)
(declare-fun p53() Bool)
(declare-fun p79() Bool)
(declare-fun p48() Bool)
(declare-fun p28() Bool)
(declare-fun p9() Bool)
(declare-fun p84() Bool)
(declare-fun p82() Bool)
(declare-fun p46() Bool)
(declare-fun p88() Bool)
(declare-fun p18() Bool)
(declare-fun p76() Bool)
(declare-fun p35() Bool)
(declare-fun p36() Bool)
(declare-fun p69() Bool)
(declare-fun p43() Bool)
(declare-fun p81() Bool)
(declare-fun p21() Bool)
(declare-fun p51() Bool)
(declare-fun p15() Bool)
(declare-fun p33() Bool)
(declare-fun p52() Bool)
(declare-fun p29() Bool)
(declare-fun p75() Bool)
(declare-fun p61() Bool)
(declare-fun p31() Bool)
(declare-fun p62() Bool)
(declare-fun p20() Bool)
(declare-fun p4() Bool)
(declare-fun p26() Bool)
(declare-fun p1() Bool)
(declare-fun p70() Bool)
(declare-fun p19() Bool)
(declare-fun p5() Bool)
(declare-fun p27() Bool)
(declare-fun p56() Bool)
(declare-fun p50() Bool)
(declare-fun p16() Bool)
(declare-fun p22() Bool)
(declare-fun p74() Bool)
(declare-fun p66() Bool)
(declare-fun p12() Bool)
(declare-fun p47() Bool)
(declare-fun p8() Bool)
(declare-fun p64() Bool)
(declare-fun p65() Bool)
(declare-fun p6() Bool)
(declare-fun p44() Bool)
(declare-fun p25() Bool)
(declare-fun p3() Bool)
(declare-fun p7() Bool)
(declare-fun p86() Bool)
(declare-fun p78() Bool)
(declare-fun p67() Bool)
(declare-fun p55() Bool)
(declare-fun p13() Bool)
(declare-fun p42() Bool)
(declare-fun p32() Bool)
(declare-fun p60() Bool)
(declare-fun p17() Bool)
(declare-fun p14() Bool)
(declare-fun p2() Bool)
(assert
(and (or (not p10) (not p77) (not p58)) (or p49 p23 (not p57)) (or p80 (not p38) (not p83)) (or p45 p39 p11) (or (not p85) p87 (not p37)) (or (not p24) (not p34) (not p68)) (or p30 (not p59) (not p83)) (or (not p63) p34 (not p71)) (or (not p89) (not p71) (not p41)) (or (not p72) (not p73) p54) (or (not p45) (not p40) p0) (or (not p37) (not p53) p79) (or (not p48) (not p49) (not p28)) (or (not p71) (not p40) (not p9)) (or p84 (not p38) p82) (or p46 p88 p18) (or p76 (not p83) (not p76)) (or (not p18) (not p35) (not p36)) (or p69 (not p11) p11) (or (not p43) (not p81) (not p10)) (or p21 (not p51) p69) (or (not p39) p36 (not p48)) (or p15 p18 p33) (or (not p57) p52 (not p28)) (or (not p29) (not p75) p61) (or p57 p53 (not p31)) (or (not p76) p24 (not p0)) (or p62 (not p43) (not p0)) (or (not p38) (not p24) (not p20)) (or p53 (not p4) (not p84)) (or p29 (not p26) p73) (or (not p63) (not p1) (not p70)) (or (not p10) p10 p19) (or p53 (not p61) (not p5)) (or p46 (not p73) (not p27)) (or p56 (not p50) p72) (or (not p16) p54 (not p22)) (or p43 (not p9) (not p27)) (or p63 (not p82) (not p29)) (or p82 p28 (not p59)) (or (not p74) p66 (not p18)) (or p54 p41 (not p12)) (or p47 p22 p8) (or p24 (not p47) (not p48)) (or (not p0) p54 p87) (or p59 (not p64) (not p71)) (or p87 (not p18) p19) (or (not p43) (not p39) (not p65)) (or p33 (not p28) (not p30)) (or p63 p82 (not p6)) (or p26 p84 p19) (or (not p57) (not p47) p44) (or p19 p84 p43) (or (not p56) p27 p53) (or (not p70) (not p41) (not p87)) (or (not p49) (not p10) (not p75)) (or p52 (not p25) (not p74)) (or p57 p10 p52) (or (not p70) (not p88) p37) (or p47 (not p6) p18) (or (not p3) p0 (not p52)) (or (not p20) p77 (not p36)) (or p7 (not p4) (not p34)) (or p86 (not p59) (not p78)) (or (not p80) p26 p52) (or p23 p26 (not p89)) (or (not p49) p21 (not p9)) (or p28 p39 p24) (or p37 (not p21) (not p67)) (or p58 p77 (not p7)) (or p55 (not p8) p50) (or (not p13) p71 (not p51)) (or (not p42) p32 p9) (or (not p80) p88 (not p70)) (or p50 p86 p9) (or p41 (not p68) (not p37)) (or (not p76) p13 p89) (or (not p70) (not p58) (not p42)) (or (not p80) (not p72) (not p38)) (or (not p59) (not p63) p21) (or (not p5) (not p33) p74) (or p46 p83 p81) (or p66 p88 p0) (or (not p88) p85 (not p58)) (or p53 p13 p28) (or (not p60) (not p47) (not p11)) (or p41 p26 p75) (or (not p58) p9 (not p16)) (or (not p57) p45 (not p26)) (or (not p1) p48 (not p22)) (or (not p78) (not p28) p29) (or (not p23) (not p84) p17) (or p38 p70 p74) (or p43 p0 (not p28)) (or p32 p32 (not p40)) (or p60 (not p69) (not p88)) (or p20 p80 (not p75)) (or (not p17) p39 (not p35)) (or p32 p70 p85) (or p85 p75 p9) (or p89 (not p64) p83) (or p54 p42 p20) (or p43 p20 p57) (or (not p58) p87 (not p71)) (or p53 (not p61) p27) (or (not p47) (not p85) (not p26)) (or p25 p55 (not p86)) (or (not p10) p86 (not p53)) (or p64 (not p4) p59) (or p88 (not p37) (not p65)) (or (not p89) (not p74) (not p77)) (or p22 p49 (not p51)) (or p21 (not p19) p0) (or (not p4) (not p15) (not p8)) (or (not p58) p64 (not p13)) (or (not p34) (not p13) (not p61)) (or p35 p66 (not p64)) (or (not p31) p60 (not p38)) (or (not p85) p50 p59) (or p29 (not p22) (not p58)) (or (not p44) p10 (not p28)) (or (not p11) p66 (not p61)) (or p72 p29 (not p17)) (or p18 p62 p1) (or (not p50) (not p30) p44) (or (not p25) p84 p73) (or (not p17) (not p21) p76) (or p35 (not p78) p15) (or (not p6) p10 (not p54)) (or (not p44) (not p32) (not p54)) (or p31 p14 p8) (or (not p43) (not p64) (not p43)) (or p1 p76 p43) (or p61 (not p37) (not p33)) (or (not p68) (not p50) p54) (or (not p1) p1 p57) (or p23 (not p45) p44) (or p40 p53 (not p53)) (or (not p23) (not p59) (not p36)) (or (not p59) p55 p75) (or p20 p42 (not p54)) (or (not p48) p6 (not p22)) (or p11 p4 p8) (or (not p38) (not p53) p44) (or (not p5) p23 (not p31)) (or p10 p87 p7) (or p0 (not p68) p55) (or p41 p7 p32) (or p42 p76 (not p19)) (or p74 (not p37) (not p51)) (or (not p89) (not p80) (not p75)) (or p80 p11 (not p24)) (or (not p35) p42 (not p13)) (or p28 p84 p17) (or (not p38) p7 p51) (or p36 (not p79) p81) (or (not p19) p25 (not p56)) (or p2 (not p44) p78) (or (not p63) p9 (not p55)) (or (not p6) (not p88) p7) (or p9 (not p65) (not p64)) (or (not p47) (not p62) (not p30)) (or (not p25) (not p86) p77) (or p16 (not p35) p18) (or (not p79) p16 (not p19)) (or (not p69) (not p46) p5) (or (not p81) p77 p83) (or p16 p68 (not p24)) (or p79 p65 (not p62)) (or (not p23) (not p7) (not p40)) (or p88 p22 p0) (or (not p33) (not p39) (not p69)) (or (not p13) p19 (not p54)) (or p34 p56 (not p64)) (or p57 p23 (not p53)) (or (not p51) p25 (not p3)) (or p55 p58 p85) (or p87 p87 p40) (or (not p83) p33 (not p89)) (or p5 p51 p45) (or (not p80) p54 p45) (or p44 (not p73) (not p23)) (or (not p37) p68 (not p45)) (or p41 p38 p78) (or p66 p76 p89) (or p15 p50 p66) (or p50 (not p31) (not p9)) (or (not p16) (not p35) (not p0)) (or p65 p45 (not p74)) (or p31 p4 (not p23)) (or (not p53) p52 (not p5)) (or p51 (not p25) p42) (or (not p42) (not p77) p86) (or (not p51) p24 (not p3)) (or (not p80) (not p76) (not p3)) (or (not p13) p14 (not p36)) (or (not p85) p0 p76) (or p20 (not p7) (not p2)) (or p56 (not p21) (not p60)) (or (not p37) (not p13) (not p2)) (or p4 p54 p40) (or (not p89) (not p25) p31) (or p24 (not p71) (not p15)) (or (not p22) (not p36) (not p82)) (or p28 p76 p1) (or (not p44) p4 p22) (or (not p20) (not p32) (not p38)) (or (not p82) (not p9) (not p37)) (or (not p76) p47 (not p78)) (or p1 (not p72) (not p17)) (or p21 (not p34) p13) (or p45 p31 p39) (or (not p19) p70 p11) (or (not p52) (not p17) (not p77)) (or (not p1) p46 (not p53)) (or p24 p2 p79) (or p82 p74 (not p80)) (or p15 p52 p62) (or (not p52) (not p58) (not p66)) (or p69 (not p65) (not p85)) (or (not p26) p29 p76) (or p73 p10 (not p73)) (or (not p21) p65 p29) (or p24 p25 p15) (or p14 p59 p36) (or (not p89) (not p75) p33) (or (not p38) p51 p16) (or p38 (not p3) p33) (or p5 (not p17) p38) (or p68 (not p29) p29) (or (not p3) (not p4) p71) (or p22 p58 (not p81)) (or (not p66) (not p22) (not p71)) (or (not p85) p39 p1) (or p81 p63 (not p79)) (or (not p44) (not p27) (not p45)) (or p9 (not p35) p42) (or (not p80) p33 (not p61)) (or p6 p13 p28) (or p19 (not p33) p27) (or (not p89) (not p73) p41) (or p39 p13 p42) (or (not p32) p79 (not p85)) (or p32 (not p38) p7) (or p12 (not p87) p10) (or (not p45) p87 (not p84)) (or p40 p47 p47) (or p80 p76 p44) (or p14 (not p29) (not p25)) (or (not p63) (not p31) p2) (or (not p68) (not p82) (not p82)) (or (not p15) p26 (not p14)) (or p57 (not p2) p76) (or p18 (not p56) p54) (or (not p84) p68 (not p36)) (or p86 p20 p2) (or p77 (not p45) (not p10)) (or (not p18) (not p75) p4) (or p6 (not p20) (not p16)) (or p37 p50 p83) (or (not p6) (not p36) p21) (or p27 p20 (not p54)) (or p79 p79 p39) (or p63 (not p54) p65) (or p0 p89 (not p84)) (or (not p42) (not p87) (not p67)) (or (not p85) (not p64) p39) (or (not p2) (not p10) (not p76)) (or (not p88) p2 (not p10)) (or p84 (not p0) (not p44)) (or (not p9) (not p26) p5) (or p44 p11 (not p80)) (or (not p18) (not p73) (not p19)) (or p12 (not p2) p84) (or p51 p67 (not p48)) (or (not p31) p72 (not p5)) (or p85 p37 p83) (or p87 (not p27) (not p39)) (or p78 p85 p66) (or p85 (not p14) (not p73)) (or (not p18) (not p65) p42) (or p81 (not p88) (not p22)) (or (not p54) p21 (not p67)) (or p55 (not p42) (not p41)) (or p87 p62 (not p29)) (or p2 (not p72) (not p32)) (or (not p56) (not p89) p22) (or (not p24) p81 (not p53)) (or p87 (not p24) (not p43)) (or p50 (not p66) p55) (or (not p22) (not p27) p76) (or p37 p59 p42) (or p75 (not p75) (not p81)) (or (not p39) (not p20) (not p81)) (or (not p83) (not p45) (not p5)) (or (not p88) p79 p1) (or p33 p20 p52) (or (not p89) (not p74) p17) (or p72 (not p83) p33) (or p8 (not p0) p48) (or (not p82) p21 (not p13)) (or (not p30) (not p80) p53) (or (not p54) (not p30) (not p78)) (or (not p88) (not p63) p16) (or p6 (not p0) (not p54)) (or p76 p2 p63) (or (not p50) p57 (not p24)) (or (not p84) p64 (not p60)) (or p1 p19 p18) (or (not p69) (not p3) p21) (or p60 (not p80) (not p57)) (or p83 (not p33) (not p62)) (or p24 (not p41) (not p22)) (or (not p34) (not p38) p68) (or p54 p28 (not p48)) (or p80 p29 p46) (or (not p26) p83 (not p14)) (or (not p52) (not p60) (not p48)) (or p82 (not p11) (not p36)) (or p82 p58 (not p14)) (or p69 p31 (not p53)) (or (not p42) p18 (not p46)) (or (not p55) (not p68) p87) (or p80 (not p75) (not p4)) (or p8 p7 p65) (or p59 (not p50) (not p54)) (or (not p48) p72 p51) (or (not p5) p51 (not p42)) (or (not p81) (not p45) p4) (or p37 (not p4) (not p47)) (or p78 p1 p44) (or p86 (not p0) p78) (or p1 p4 p54) (or (not p56) p11 (not p57)) (or (not p84) (not p84) (not p29)) (or (not p72) (not p36) p65) (or (not p10) p1 p46) (or p44 (not p20) p43) (or (not p78) p61 (not p3)) (or p83 p49 (not p67)) (or p46 (not p53) (not p19)) (or (not p53) (not p34) p68) (or p62 p11 p58) (or p19 (not p67) (not p2)) (or (not p32) (not p56) (not p80)) (or p41 (not p83) (not p46)) (or (not p4) (not p66) (not p52)) (or p87 (not p4) p10) (or p43 (not p25) (not p34)) (or p50 p49 p13) (or p36 (not p9) p68) (or (not p5) (not p80) p39) (or p0 p47 (not p48)) (or (not p77) (not p40) (not p25)) (or (not p83) p16 (not p30)) (or (not p44) (not p86) p53) (or (not p27) (not p54) (not p78)) (or p45 p84 (not p67)) (or (not p19) (not p62) (not p46)) (or p26 (not p6) p15) (or p30 p86 (not p79)) (or (not p37) (not p29) p45) (or p21 p10 (not p52)) (or (not p1) (not p41) (not p19)) (or p60 p60 (not p72)) (or p7 (not p41) (not p87)) (or p41 (not p66) (not p55)) (or (not p13) (not p18) (not p24)) (or (not p26) (not p42) (not p28)) (or (not p76) p41 p58) (or (not p19) p47 (not p45)) (or (not p72) (not p50) p49) (or (not p40) p60 (not p29)) (or (not p37) p41 p21) (or (not p31) p47 p60) (or p71 p33 (not p16)) (or p80 (not p43) (not p74)) (or (not p7) (not p68) (not p82)) (or (not p52) p8 p59) (or p32 p65 p49) (or p44 p59 p55) (or (not p20) (not p82) (not p33)) (or p63 p51 p66) (or p22 (not p40) (not p27)) (or p9 (not p1) p43) (or p10 p0 p72) (or p18 p52 p8) (or p61 p15 (not p47)) (or (not p76) p60 (not p83)) (or (not p53) p14 (not p31)) (or (not p76) (not p60) (not p5)) (or p69 p54 (not p18)) (or (not p57) p14 p44) (or p65 p78 p57) (or (not p27) (not p56) p8) (or p67 p66 (not p41)) (or (not p40) (not p16) p75) (or (not p61) p12 (not p18)) (or p57 (not p84) (not p8)) (or (not p3) p69 (not p65)) (or p78 p46 (not p36)) (or (not p3) p3 p64) (or (not p51) p6 (not p67)) (or (not p70) (not p32) p62) (or (not p24) p0 p78) (or p69 (not p47) (not p77)) (or (not p85) (not p40) p50) (or p79 (not p55) p16) (or (not p80) (not p17) (not p70)) (or (not p83) p84 p25) (or (not p76) p70 (not p53)) (or p31 (not p85) p55) (or (not p13) (not p78) p33) (or p82 p69 (not p17)) (or p68 p7 p73) (or (not p40) (not p57) p15) (or (not p18) (not p76) p3) (or p14 (not p76) (not p25)) (or (not p16) (not p32) (not p36)) (or (not p78) p55 p76) (or p38 p21 p75) (or (not p28) p37 (not p62)) (or (not p81) p0 p66) (or (not p82) (not p35) (not p74)) (or (not p69) p51 (not p44)) (or p64 p76 p16) (or (not p39) p74 (not p2)) (or (not p26) p53 p5) (or p76 p87 p64) (or (not p2) p22 (not p71)) (or p89 (not p49) p61) (or (not p37) p18 p3) (or (not p71) (not p7) p86) (or p9 p47 (not p60)) (or p24 (not p55) (not p59)) (or p78 (not p7) p50) (or p67 (not p13) p53) (or p85 p84 (not p22)) (or (not p21) (not p28) p36) (or (not p79) (not p28) p46) (or p21 p27 p4) (or (not p83) p19 (not p3)) (or (not p70) (not p88) (not p23)) (or (not p24) (not p43) (not p45)) (or p61 (not p13) p27) (or p64 p46 (not p66)) (or p52 p44 p73) (or p30 p76 p75))
)
(check-sat)
(get-model)
